&CONTROL
calculation = 'relax'
restart_mode = 'from_scratch'
outdir = './out/'
prefix = 'CNYC'
pseudo_dir = '/leonardo/home/userexternal/rdettori/Pseudo'
tprnfor = .true.
etot_conv_thr = 1.0d-5
forc_conv_thr = 1.0d-3
verbosity = 'high'
/

&SYSTEM
ibrav = 0
nat = 321
ntyp = 4
ecutwfc = 70.0
ecutrho = 350.0      ! try 560 first if you want (8x), then 700 (10x)
occupations = 'smearing'
smearing = 'cold'
degauss  = 0.02      ! temporarily larger; you can go back to 0.01 later
nosym = .true.
nbnd = 1350
/

&ELECTRONS
electron_maxstep = 200
conv_thr = 1.0d-8
diagonalization = 'cg'
diago_thr_init = 1.0d-3
mixing_mode = 'local-TF'
mixing_beta = 0.20
mixing_ndim = 12
startingpot = 'atomic'
startingwfc = 'atomic+random'
/

&IONS
ion_dynamics = 'bfgs'
trust_radius_ini = 0.10
trust_radius_max = 0.20
trust_radius_min = 1.0d-3
/

ATOMIC_SPECIES 
Cl 35.453 Cl.pbe-n-rrkjus_psl.1.0.0.UPF 
Cs 132.905 Cs.pbe-spn-rrkjus_psl.1.0.0.UPF 
Na 22.98977 Na.pbe-spn-rrkjus_psl.1.0.0.UPF 
Yb 173.054 Yb.pbe-spdn-rrkjus_psl.1.0.0.UPF 

K_POINTS {gamma} 

ATOMIC_POSITIONS crystal
Cs   0.374999755693   0.375000244495   0.125000244307
Cs   0.374999661501   0.375000294666   0.625000233413
Cs   0.374999755861   0.875000243964   0.125000244139
Cs   0.374999740235   0.875000213046   0.625000199841
Cs   0.874999766587   0.375000294666   0.125000338499
Cs   0.875085712496   0.375019175638   0.624914287504
Cs   0.874999800159   0.875000213046   0.125000259765
Cs   0.874998664817   0.875000806894   0.625001335183
Cs   0.374999915437   0.125000084566   0.125000084563
Cs   0.374999915474   0.125000083051   0.625000085603
Cs   0.374999915413   0.625000084063   0.125000084587
Cs   0.374999838260   0.625000084982   0.625000054942
Cs   0.874999914397   0.125000083051   0.125000084526
Cs   0.874999743573   0.124999996164   0.625000256427
Cs   0.874999945058   0.625000084982   0.125000161740
Cs   0.875071323863   0.624965194135   0.624928676137
Cs   0.124999757038   0.125000242578   0.125000244052
Cs   0.124999927862   0.125000155690   0.625000415955
Cs   0.124999726377   0.625000244510   0.125000321267
Cs   0.124928347812   0.624965354318   0.624928835164
Cs   0.624999755998   0.125000244093   0.125000244090
Cs   0.624999755961   0.125000242578   0.625000245130
Cs   0.624999756022   0.625000243590   0.125000244114
Cs   0.624999833173   0.625000244514   0.625000214468
Cs   0.124999904849   0.375000135139   0.125000178973
Cs   0.124913959505   0.375019015406   0.624914127707
Cs   0.124999871276   0.875000053519   0.125000100239
Cs   0.125001006621   0.875000647361   0.625001175657
Cs   0.624999915742   0.375000084969   0.125000084780
Cs   0.625000009934   0.375000135138   0.625000073887
Cs   0.624999915574   0.875000084437   0.125000084612
Cs   0.624999931202   0.875000053516   0.625000040310
Cs   0.374999755948   0.125000242578   0.375000242962
Cs   0.374999755910   0.125000244093   0.875000244002
Cs   0.374999678733   0.625000244510   0.375000273623
Cs   0.374999755886   0.625000243590   0.875000243978
Cs   0.874999584045   0.125000155690   0.375000072138
Cs   0.874999754870   0.125000242578   0.875000244039
Cs   0.875071164836   0.624965354318   0.375071652188
Cs   0.874999785532   0.625000244514   0.875000166827
Cs   0.124913798948   0.375019175842   0.375086201052
Cs   0.124999745322   0.375000294665   0.875000149592
Cs   0.125000847093   0.875000806890   0.374999152907
Cs   0.124999711745   0.875000213043   0.875000228325
Cs   0.624999850408   0.375000294665   0.375000254678
Cs   0.624999756215   0.375000244495   0.875000243785
Cs   0.624999771675   0.875000213043   0.375000288255
Cs   0.624999756047   0.875000243964   0.875000243953
Cs   0.374999821027   0.375000135139   0.375000095151
Cs   0.374999915220   0.375000084969   0.875000084258
Cs   0.374999899761   0.875000053519   0.375000128724
Cs   0.374999915388   0.875000084437   0.875000084426
Cs   0.875085872293   0.375019015406   0.375086040495
Cs   0.874999926113   0.375000135138   0.874999990066
Cs   0.874998824343   0.875000647361   0.374998993379
Cs   0.874999959690   0.875000053516   0.875000068798
Cs   0.125000087389   0.124999996165   0.374999912611
Cs   0.124999916565   0.125000083051   0.875000084512
Cs   0.124928507075   0.624965195888   0.375071492925
Cs   0.124999885903   0.625000084987   0.875000007299
Cs   0.624999915488   0.125000083051   0.375000083435
Cs   0.624999915525   0.125000084566   0.875000084475
Cs   0.624999992701   0.625000084987   0.375000114097
Cs   0.624999915549   0.625000084063   0.875000084451
Cl   0.499999838587   0.380175662297   0.000000161413
Cl   0.499999838588   0.380175639122   0.500000161413
Cl   0.499999838587   0.880175662296   0.000000161413
Cl   0.499999838587   0.880175663210   0.500000161413
Cl   0.999999838587   0.380175639122   0.000000161412
Cl   0.999999820691   0.371100240300   0.500000179309
Cl   0.999999838587   0.880175663210   0.000000161413
Cl   0.999999838585   0.880295737261   0.500000161415
Cl   0.499999837399   0.119824633938   0.000000162601
Cl   0.499999837399   0.119824633557   0.500000162601
Cl   0.499999837399   0.619824633938   0.000000162601
Cl   0.499999837400   0.619824663043   0.500000162601
Cl   0.999999837399   0.119824633557   0.000000162601
Cl   0.999999837397   0.119808568145   0.500000162603
Cl   0.999999837399   0.619824663043   0.000000162600
Cl   0.999999752507   0.646617354138   0.500000247493
Cl   0.380175366062   0.000000162601   0.000000162601
Cl   0.380175366635   0.000000162374   0.500000162601
Cl   0.380175366107   0.500000162602   0.000000162601
Cl   0.380174757603   0.500000167374   0.500000162601
Cl   0.880175366125   0.000000162609   0.000000162601
Cl   0.880175132437   0.999999695052   0.500000162602
Cl   0.880175335526   0.500000162599   0.000000162600
Cl   0.880465842053   0.499803098957   0.500000161976
Cl   0.499999837399   0.000000162601   0.119824633938
Cl   0.499999837399   0.000000162609   0.619824633875
Cl   0.499999837399   0.500000162602   0.119824633893
Cl   0.499999837400   0.500000162599   0.619824664474
Cl   0.999999837399   0.000000162374   0.119824633365
Cl   0.999999837398   0.999999695052   0.619824867563
Cl   0.999999837399   0.500000167374   0.119825242397
Cl   0.999999838024   0.499803098957   0.619534157947
Cl   0.249999837475   0.369824633934   0.000000162601
Cl   0.249966427107   0.369833939001   0.500000162583
Cl   0.249999837402   0.869824633922   0.000000162601
Cl   0.249999750591   0.869824974078   0.500000162602
Cl   0.749999837322   0.369824633934   0.000000162601
Cl   0.750033246583   0.369833938536   0.500000162582
Cl   0.749999837395   0.869824633922   0.000000162601
Cl   0.749999924212   0.869824974059   0.500000162602
Cl   0.130175366712   0.250000162482   0.000000162601
Cl   0.130246496989   0.249943816059   0.500000162640
Cl   0.130175367198   0.750000162707   0.000000162601
Cl   0.130326972305   0.750011831729   0.500000162376
Cl   0.630175366033   0.250000162602   0.000000162601
Cl   0.630174950586   0.250000312532   0.500000162602
Cl   0.630175366005   0.750000162601   0.000000162601
Cl   0.630174733447   0.750000054182   0.500000162602
Cl   0.380175365904   0.250000162721   0.250000162542
Cl   0.380175365904   0.250000162721   0.750000162660
Cl   0.380175366497   0.750000162414   0.250000162236
Cl   0.380175366497   0.750000162414   0.750000162967
Cl   0.880175300077   0.250000176747   0.249999981446
Cl   0.880175300077   0.250000176744   0.750000343754
Cl   0.880174783313   0.750000167718   0.249999864592
Cl   0.880174783308   0.750000167716   0.750000460599
Cl   0.499999837399   0.369824633934   0.250000162525
Cl   0.499999837399   0.369824633934   0.750000162678
Cl   0.499999837399   0.869824633922   0.250000162598
Cl   0.499999837399   0.869824633922   0.750000162605
Cl   0.999999837417   0.369833939001   0.250033572893
Cl   0.999999837418   0.369833938536   0.749966753417
Cl   0.999999837398   0.869824974078   0.250000249409
Cl   0.999999837398   0.869824974059   0.750000075788
Cl   0.130175366900   0.000000162397   0.250000162699
Cl   0.130175366900   0.000000162397   0.750000162504
Cl   0.130174486487   0.500000227993   0.250000741114
Cl   0.130174486580   0.500000227994   0.749999584155
Cl   0.630175366035   0.000000162633   0.250000162586
Cl   0.630175366035   0.000000162633   0.750000162617
Cl   0.630175368146   0.500000162774   0.250000147765
Cl   0.630175368146   0.500000162774   0.750000177438
Cl   0.249999837305   0.119824634189   0.250000162695
Cl   0.249999837305   0.119824634189   0.750000162508
Cl   0.249999883472   0.619824454271   0.250000116528
Cl   0.249999883474   0.619824454270   0.750000208675
Cl   0.749999837492   0.119824634189   0.250000162695
Cl   0.749999837492   0.119824634189   0.750000162508
Cl   0.749999791325   0.619824454270   0.250000116526
Cl   0.749999791323   0.619824454271   0.750000208677
Cl   0.249999838584   0.130175662268   0.000000161413
Cl   0.250000138903   0.130175366563   0.500000161413
Cl   0.249999838666   0.630175662356   0.000000161413
Cl   0.249978962758   0.630177965691   0.500000161424
Cl   0.749999838590   0.130175662268   0.000000161413
Cl   0.749999538274   0.130175366560   0.500000161413
Cl   0.749999838508   0.630175662356   0.000000161413
Cl   0.750020713520   0.630177966157   0.500000161424
Cl   0.249999837458   0.250000162721   0.119824634096
Cl   0.250000018554   0.250000176747   0.619824699923
Cl   0.249999837764   0.750000162414   0.119824633503
Cl   0.250000135408   0.750000167718   0.619825216687
Cl   0.749999837340   0.250000162721   0.119824634096
Cl   0.749999656246   0.250000176744   0.619824699923
Cl   0.749999837033   0.750000162414   0.119824633503
Cl   0.749999539401   0.750000167716   0.619825216692
Cl   0.499999837399   0.250000162482   0.369824633288
Cl   0.499999837399   0.250000162602   0.869824633967
Cl   0.499999837399   0.750000162707   0.369824632802
Cl   0.499999837399   0.750000162601   0.869824633995
Cl   0.999999837360   0.249943816059   0.369753503011
Cl   0.999999837398   0.250000312532   0.869825049414
Cl   0.999999837624   0.750011831729   0.369673027695
Cl   0.999999837398   0.750000054182   0.869825266553
Cl   0.499999838587   0.130175662268   0.250000161416
Cl   0.499999838587   0.130175662268   0.750000161410
Cl   0.499999838587   0.630175662356   0.250000161334
Cl   0.499999838587   0.630175662356   0.750000161492
Cl   0.999999838587   0.130175366563   0.249999861097
Cl   0.999999838587   0.130175366560   0.750000461726
Cl   0.999999838576   0.630177965691   0.250021037242
Cl   0.999999838576   0.630177966157   0.749979286480
Cl   0.249999837301   0.000000162397   0.369824633100
Cl   0.249999837414   0.000000162633   0.869824633965
Cl   0.249999258886   0.500000227993   0.369825513513
Cl   0.249999852235   0.500000162774   0.869824631854
Cl   0.749999837496   0.000000162397   0.369824633100
Cl   0.749999837383   0.000000162633   0.869824633965
Cl   0.750000415845   0.500000227994   0.369825513420
Cl   0.749999822562   0.500000162774   0.869824631854
Cl   0.249999881413   0.380175820729   0.250000118587
Cl   0.249999881412   0.380175820726   0.750000204238
Cl   0.249999838490   0.880175662645   0.250000161510
Cl   0.249999838490   0.880175662645   0.750000161316
Cl   0.749999795762   0.380175820726   0.250000118588
Cl   0.749999795763   0.380175820726   0.750000204237
Cl   0.749999838684   0.880175662645   0.250000161510
Cl   0.749999838684   0.880175662645   0.750000161316
Cl   0.369824337732   0.250000161413   0.000000161413
Cl   0.369824753177   0.250000311349   0.500000161414
Cl   0.369824337760   0.750000161413   0.000000161413
Cl   0.369824970346   0.750000052993   0.500000161414
Cl   0.869824337054   0.250000161294   0.000000161413
Cl   0.869753206987   0.249943815192   0.500000161389
Cl   0.869824336568   0.750000161519   0.000000161413
Cl   0.869672730689   0.750011831711   0.500000161161
Cl   0.119824337641   0.000000161421   0.000000161413
Cl   0.119824571330   0.999999693866   0.500000161413
Cl   0.119824368239   0.500000161411   0.000000161412
Cl   0.119533825941   0.499803104925   0.500000161164
Cl   0.619824337704   0.000000161413   0.000000161413
Cl   0.619824337131   0.000000161186   0.500000161413
Cl   0.619824337659   0.500000161413   0.000000161413
Cl   0.619824946109   0.500000166186   0.500000161413
Cl   0.369824337731   0.000000161445   0.250000161398
Cl   0.369824337731   0.000000161445   0.750000161429
Cl   0.369824335619   0.500000161586   0.250000146577
Cl   0.369824335619   0.500000161586   0.750000176250
Cl   0.869824336866   0.000000161209   0.250000161511
Cl   0.869824336866   0.000000161209   0.750000161316
Cl   0.869825217275   0.500000226805   0.250000739926
Cl   0.869825217186   0.500000226807   0.749999582962
Cl   0.119824403687   0.250000175556   0.249999980257
Cl   0.119824403690   0.250000175556   0.750000342566
Cl   0.119824920451   0.750000166531   0.249999863404
Cl   0.119824920457   0.750000166526   0.750000459412
Cl   0.619824337861   0.250000161533   0.250000161354
Cl   0.619824337861   0.250000161533   0.750000161472
Cl   0.619824337269   0.750000161226   0.250000161048
Cl   0.619824337269   0.750000161226   0.750000161779
Cl   0.499999838587   0.250000161413   0.130175662268
Cl   0.499999838587   0.250000161294   0.630175662946
Cl   0.499999838587   0.750000161413   0.130175662240
Cl   0.499999838587   0.750000161519   0.630175663432
Cl   0.999999838586   0.250000311349   0.130175246823
Cl   0.999999838611   0.249943815192   0.630246793013
Cl   0.999999838586   0.750000052993   0.130175029654
Cl   0.999999838839   0.750011831711   0.630327269311
Cl   0.249999838602   0.000000161445   0.130175662269
Cl   0.249999838489   0.000000161209   0.630175663134
Cl   0.249999853423   0.500000161586   0.130175664381
Cl   0.249999260074   0.500000226805   0.630174782725
Cl   0.749999838571   0.000000161445   0.130175662269
Cl   0.749999838684   0.000000161209   0.630175663134
Cl   0.749999823750   0.500000161586   0.130175664381
Cl   0.750000417038   0.500000226807   0.630174782814
Cl   0.499999838587   0.000000161421   0.380175662359
Cl   0.499999838587   0.000000161413   0.880175662296
Cl   0.499999838588   0.500000161411   0.380175631761
Cl   0.499999838587   0.500000161413   0.880175662341
Cl   0.999999838587   0.999999693866   0.380175428670
Cl   0.999999838587   0.000000161186   0.880175662869
Cl   0.999999838836   0.499803104925   0.380466174059
Cl   0.999999838587   0.500000166186   0.880175053891
Cl   0.250000019743   0.250000175556   0.380175596313
Cl   0.249999838646   0.250000161533   0.880175662139
Cl   0.250000136596   0.750000166531   0.380175079549
Cl   0.249999838952   0.750000161226   0.880175662731
Cl   0.749999657434   0.250000175556   0.380175596310
Cl   0.749999838528   0.250000161533   0.880175662139
Cl   0.749999540588   0.750000166526   0.380175079543
Cl   0.749999838221   0.750000161226   0.880175662731
Na   0.499999840264   0.250000159737   0.000000159736
Na   0.499999840265   0.250000137744   0.500000159736
Na   0.499999840264   0.750000159736   0.000000159736
Na   0.499999840273   0.750000171358   0.500000159736
Na   0.999999840264   0.250000137744   0.000000159735
Na   0.999999840492   0.249851031381   0.500000159508
Na   0.999999840264   0.750000171358   0.000000159727
Na   0.999999841213   0.751309920184   0.500000158787
Na   0.249999840239   0.000000159706   0.000000159736
Na   0.249999769879   0.000000102336   0.500000159736
Na   0.249999840724   0.500000159765   0.000000159736
Na   0.249936114355   0.499997201824   0.500000159715
Na   0.749999840289   0.000000159706   0.000000159736
Na   0.749999910649   0.000000102330   0.500000159736
Na   0.749999839804   0.500000159765   0.000000159736
Na   0.750063564686   0.499997201650   0.500000159726
Na   0.499999840264   0.000000159706   0.250000159761
Na   0.499999840264   0.000000159706   0.750000159711
Na   0.499999840264   0.500000159765   0.250000159276
Na   0.499999840264   0.500000159765   0.750000160196
Na   0.999999840264   0.000000102336   0.250000230121
Na   0.999999840264   0.000000102330   0.750000089351
Na   0.999999840285   0.499997201824   0.250063885645
Na   0.999999840274   0.499997201650   0.749936435314
Na   0.249999749896   0.250000248640   0.250000250104
Na   0.249999749897   0.250000248640   0.750000069369
Na   0.249999701192   0.750000062364   0.250000298808
Na   0.249999701191   0.750000062365   0.750000020665
Na   0.749999930631   0.250000248640   0.250000250103
Na   0.749999930631   0.250000248640   0.750000069369
Na   0.749999979335   0.750000062365   0.250000298809
Na   0.749999979335   0.750000062365   0.750000020665
Yb   0.249999949930   0.250000050012   0.000000049836
Yb   0.250002135109   0.250000222496   0.500000049829
Yb   0.249999950021   0.750000049711   0.000000049835
Yb   0.249984371580   0.749991600771   0.500000049847
Yb   0.749999950399   0.250000050012   0.000000049835
Yb   0.749997765214   0.250000222515   0.500000049831
Yb   0.749999950308   0.750000049711   0.000000049836
Yb   0.750015530146   0.749991600148   0.500000049845
Yb   0.999999950165   0.000000049894   0.000000049835
Yb   0.999999950179   0.000010432113   0.500000049821
Yb   0.999999950164   0.500000050196   0.000000049841
Yb   0.999999978847   0.461916026040   0.500000021153
Yb   0.499999950164   0.000000049835   0.000000049836
Yb   0.499999950165   0.000000049894   0.500000049835
Yb   0.499999950164   0.500000049834   0.000000049836
Yb   0.499999950159   0.500000050196   0.500000049836
Yb   0.249999951701   0.000000051194   0.250000048299
Yb   0.249999951701   0.000000051194   0.750000051372
Yb   0.249999737345   0.500000049814   0.250000262655
Yb   0.249999737348   0.500000049814   0.749999837020
Yb   0.749999948628   0.000000051194   0.250000048299
Yb   0.749999948628   0.000000051194   0.750000051372
Yb   0.750000162980   0.500000049814   0.250000262652
Yb   0.750000162979   0.500000049811   0.749999837021
Yb   0.999999950171   0.250000222496   0.249997864891
Yb   0.999999950169   0.250000222515   0.750002234786
Yb   0.999999950153   0.749991600771   0.250015628420
Yb   0.999999950155   0.749991600148   0.749984469854
Yb   0.499999950164   0.250000050012   0.250000050070
Yb   0.499999950164   0.250000050012   0.750000049601
Yb   0.499999950165   0.750000049711   0.250000049979
Yb   0.499999950164   0.750000049711   0.750000049692
Cl   0.000000109017   0.555120119725   0.499999890983

CELL_PARAMETERS angstrom
   21.595646160000   0.000000000000   0.000000000000
   0.000000000000   21.595646160000   0.000000000000
   0.000000000000   0.000000000000   21.595646160000

